num_jobs = 5;
num_tasks = 4;
num_machines = 4;
durations = [| 2, 2, 1, 2,
     |2, 4, 1, 0,
     |2, 3, 0, 0,
     |4, 1, 1, 1,
     |3, 1, 2, 0|];
machine_ids = [|3, 4, 2, 3,
       |4, 3, 1, 0,
       |2, 4, 0, 0,
       |1, 4, 1, 1,
       |2, 1, 2, 0|];